============================[ Problem Statistics ]=============================|                                                                             ||  Number of variables:          4242                                         ||  Number of clauses:           10053                                         ||  Parse time:                   0.45 s                                       ||                                                                             |============================[ Search Statistics ]==============================| Conflicts |          ORIGINAL         |          LEARNT          | Progress ||           |    Vars  Clauses Literals |    Limit  Clauses Lit/Cl |          |===============================================================================|       100 |    1591     6258   703879 |     2294      100     53 | 62.501 % ||       250 |    1591     6258   703879 |     2524      250     75 | 62.495 % |===============================================================================restarts              : 3conflicts             : 251            (367 /sec)decisions             : 518            (0.00 % random) (758 /sec)propagations          : 11756          (17212 /sec)conflict literals     : 18968          (94.90 % deleted)CPU time              : 0.683 sSATISFIABLE